10
1 0 5
2 0 4
2 1 2
3 0 1
3 1 1
3 2 2
4 0 3
4 1 2
4 2 1
4 3 3
5 0 5
5 1 3
5 2 4
5 3 2
5 4 3
6 0 5
6 1 3
6 2 5
6 3 2
6 4 1
6 5 5
7 0 5
7 1 3
7 2 1
7 3 5
7 4 5
7 5 4
7 6 4
8 0 5
8 1 4
8 2 2
8 3 1
8 4 3
8 5 4
8 6 3
8 7 4
9 0 1
9 1 2
9 2 1
9 3 5
9 4 4
9 5 5
9 6 3
9 7 4
9 8 1
